(define-fun assumption.0 ((RTL.trap (_ BitVec 1)) (RTL.cpu_state (_ BitVec 8))) Bool (and true (not (and (= RTL.cpu_state (_ bv64 8)) (= RTL.trap (_ bv1 1))))))
(define-fun assumption.1 ((RTL.instr_slt (_ BitVec 1)) (RTL.instr_slti (_ BitVec 1)) (RTL.instr_sltiu (_ BitVec 1)) (RTL.instr_sltu (_ BitVec 1)) (RTL.instr_srai (_ BitVec 1)) (RTL.instr_srl (_ BitVec 1)) (RTL.instr_srli (_ BitVec 1)) (RTL.instr_sub (_ BitVec 1)) (RTL.instr_sw (_ BitVec 1)) (RTL.instr_timer (_ BitVec 1)) (RTL.instr_sra (_ BitVec 1)) (RTL.instr_waitirq (_ BitVec 1)) (RTL.instr_xor (_ BitVec 1)) (RTL.instr_xori (_ BitVec 1)) (RTL.irq_active (_ BitVec 1)) (RTL.irq_delay (_ BitVec 1)) (RTL.irq_state (_ BitVec 2)) (RTL.is_alu_reg_imm (_ BitVec 1)) (RTL.is_alu_reg_reg (_ BitVec 1)) (RTL.is_beq_bne_blt_bge_bltu_bgeu (_ BitVec 1)) (RTL.is_lui_auipc_jal (_ BitVec 1)) (RTL.is_lui_auipc_jal_jalr_addi_add_sub (_ BitVec 1)) (RTL.is_sb_sh_sw (_ BitVec 1)) (RTL.is_sll_srl_sra (_ BitVec 1)) (RTL.is_slli_srli_srai (_ BitVec 1)) (RTL.is_slti_blt_slt (_ BitVec 1)) (RTL.mem_la_secondword (_ BitVec 1)) (RTL.latched_store (_ BitVec 1)) (RTL.mem_state (_ BitVec 2)) (RTL.mem_la_firstword_reg (_ BitVec 1)) (RTL.mem_valid (_ BitVec 1)) (RTL.rvfi_intr (_ BitVec 1)) (RTL.is_lbu_lhu_lw (_ BitVec 1)) (RTL.is_sltiu_bltu_sltu (_ BitVec 1)) (RTL.prefetched_high_word (_ BitVec 1)) (RTL.mem_instr (_ BitVec 1)) (RTL.rvfi_mode (_ BitVec 2)) (RTL.rvfi_trap (_ BitVec 1)) (RTL.rvfi_halt (_ BitVec 1)) (RTL.rvfi_valid (_ BitVec 1)) (RTL.mem_wordsize (_ BitVec 2)) (RTL.is_lb_lh_lw_lbu_lhu (_ BitVec 1)) (RTL.mem_do_prefetch (_ BitVec 1)) (RTL.pcpi_valid (_ BitVec 1)) (RTL.trace_valid (_ BitVec 1)) (RTL.trap (_ BitVec 1)) (RTL.instr_lbu (_ BitVec 1)) (RTL.instr_getq (_ BitVec 1)) (RTL.instr_bltu (_ BitVec 1)) (RTL.latched_compr (_ BitVec 1)) (RTL.instr_bge (_ BitVec 1)) (RTL.decoder_trigger_q (_ BitVec 1)) (RTL.instr_beq (_ BitVec 1)) (RTL.instr_auipc (_ BitVec 1)) (RTL.instr_and (_ BitVec 1)) (RTL.instr_add (_ BitVec 1)) (RTL.decoder_pseudo_trigger (_ BitVec 1)) (RTL.instr_ori (_ BitVec 1)) (RTL.instr_addi (_ BitVec 1)) (RTL.latched_is_lh (_ BitVec 1)) (RTL.compressed_instr (_ BitVec 1)) (RTL.instr_andi (_ BitVec 1)) (RTL.latched_is_lb (_ BitVec 1)) (RTL.dbg_irq_call (_ BitVec 1)) (RTL.instr_bne (_ BitVec 1)) (RTL.dbg_irq_enter (_ BitVec 1)) (RTL.clear_prefetched_high_word_q (_ BitVec 1)) (RTL.do_waitirq (_ BitVec 1)) (RTL.latched_is_lu (_ BitVec 1)) (RTL.instr_jal (_ BitVec 1)) (RTL.decoder_trigger (_ BitVec 1)) (RTL.dbg_next (_ BitVec 1)) (RTL.instr_lb (_ BitVec 1)) (RTL.latched_branch (_ BitVec 1)) (RTL.dbg_rs1val_valid (_ BitVec 1)) (RTL.instr_bgeu (_ BitVec 1)) (RTL.mem_do_wdata (_ BitVec 1)) (RTL.dbg_rs2val_valid (_ BitVec 1)) (RTL.instr_jalr (_ BitVec 1)) (RTL.dbg_valid_insn (_ BitVec 1)) (RTL.decoder_pseudo_trigger_q (_ BitVec 1)) (RTL.instr_lhu (_ BitVec 1)) (RTL.instr_blt (_ BitVec 1)) (RTL.instr_lh (_ BitVec 1)) (RTL.instr_lui (_ BitVec 1)) (RTL.instr_lw (_ BitVec 1)) (RTL.last_mem_valid (_ BitVec 1)) (RTL.instr_maskirq (_ BitVec 1)) (RTL.instr_or (_ BitVec 1)) (RTL.instr_rdcycle (_ BitVec 1)) (RTL.instr_rdcycleh (_ BitVec 1)) (RTL.instr_rdinstr (_ BitVec 1)) (RTL.instr_rdinstrh (_ BitVec 1)) (RTL.instr_retirq (_ BitVec 1)) (RTL.instr_sb (_ BitVec 1)) (RTL.instr_setq (_ BitVec 1)) (RTL.instr_sh (_ BitVec 1)) (RTL.instr_sll (_ BitVec 1)) (RTL.instr_slli (_ BitVec 1)) (RTL.latched_stalu (_ BitVec 1)) (RTL.latched_trace (_ BitVec 1)) (RTL.mem_do_rdata (_ BitVec 1)) (RTL.is_jalr_addi_slti_sltiu_xori_ori_andi (_ BitVec 1)) (RTL.mem_do_rinst (_ BitVec 1)) (RTL.is_compare (_ BitVec 1))) Bool (and true (not (and (and (and (and (and (and (and (and (and (and (and (and (and (and (and (and (and (and (and (and (and (and (and (and (and (and (and (and (and (and (and (and (and (and (and (and (and (and (and (and (and (and (and (and (and (and (and (and (and (and (and (and (and (and (and (and (and (and (and (and (and (and (and (and (and (and (and (and (and (and (and (and (and (and (and (and (and (and (and (and (and (and (and (and (and (and (and (and (and (and (and (and (and (and (and (and (and (and (and (and (and (and (and (and (= RTL.clear_prefetched_high_word_q (_ bv0 1)) (= RTL.compressed_instr (_ bv0 1))) (= RTL.dbg_irq_call (_ bv1 1))) (= RTL.dbg_irq_enter (_ bv0 1))) (= RTL.dbg_next (_ bv1 1))) (= RTL.dbg_rs1val_valid (_ bv0 1))) (= RTL.dbg_rs2val_valid (_ bv0 1))) (= RTL.dbg_valid_insn (_ bv1 1))) (= RTL.decoder_pseudo_trigger (_ bv0 1))) (= RTL.decoder_pseudo_trigger_q (_ bv1 1))) (= RTL.decoder_trigger (_ bv1 1))) (= RTL.decoder_trigger_q (_ bv0 1))) (= RTL.do_waitirq (_ bv0 1))) (= RTL.instr_add (_ bv1 1))) (= RTL.instr_addi (_ bv1 1))) (= RTL.instr_and (_ bv1 1))) (= RTL.instr_andi (_ bv1 1))) (= RTL.instr_auipc (_ bv0 1))) (= RTL.instr_beq (_ bv0 1))) (= RTL.instr_bge (_ bv0 1))) (= RTL.instr_bgeu (_ bv0 1))) (= RTL.instr_blt (_ bv1 1))) (= RTL.instr_bltu (_ bv1 1))) (= RTL.instr_bne (_ bv1 1))) (= RTL.instr_getq (_ bv1 1))) (= RTL.instr_jal (_ bv1 1))) (= RTL.instr_jalr (_ bv1 1))) (= RTL.instr_lb (_ bv1 1))) (= RTL.instr_lbu (_ bv1 1))) (= RTL.instr_lh (_ bv1 1))) (= RTL.instr_lhu (_ bv1 1))) (= RTL.instr_lui (_ bv0 1))) (= RTL.instr_lw (_ bv1 1))) (= RTL.instr_maskirq (_ bv1 1))) (= RTL.instr_or (_ bv1 1))) (= RTL.instr_ori (_ bv1 1))) (= RTL.instr_rdcycle (_ bv1 1))) (= RTL.instr_rdcycleh (_ bv0 1))) (= RTL.instr_rdinstr (_ bv0 1))) (= RTL.instr_rdinstrh (_ bv0 1))) (= RTL.instr_retirq (_ bv1 1))) (= RTL.instr_sb (_ bv1 1))) (= RTL.instr_setq (_ bv1 1))) (= RTL.instr_sh (_ bv1 1))) (= RTL.instr_sll (_ bv1 1))) (= RTL.instr_slli (_ bv1 1))) (= RTL.instr_slt (_ bv1 1))) (= RTL.instr_slti (_ bv1 1))) (= RTL.instr_sltiu (_ bv1 1))) (= RTL.instr_sltu (_ bv1 1))) (= RTL.instr_sra (_ bv1 1))) (= RTL.instr_srai (_ bv1 1))) (= RTL.instr_srl (_ bv1 1))) (= RTL.instr_srli (_ bv1 1))) (= RTL.instr_sub (_ bv1 1))) (= RTL.instr_sw (_ bv1 1))) (= RTL.instr_timer (_ bv1 1))) (= RTL.instr_waitirq (_ bv1 1))) (= RTL.instr_xor (_ bv1 1))) (= RTL.instr_xori (_ bv1 1))) (= RTL.irq_active (_ bv0 1))) (= RTL.irq_delay (_ bv0 1))) (= RTL.irq_state (_ bv3 2))) (= RTL.is_alu_reg_imm (_ bv0 1))) (= RTL.is_alu_reg_reg (_ bv0 1))) (= RTL.is_beq_bne_blt_bge_bltu_bgeu (_ bv1 1))) (= RTL.is_compare (_ bv0 1))) (= RTL.is_jalr_addi_slti_sltiu_xori_ori_andi (_ bv0 1))) (= RTL.is_lb_lh_lw_lbu_lhu (_ bv1 1))) (= RTL.is_lbu_lhu_lw (_ bv0 1))) (= RTL.is_lui_auipc_jal (_ bv0 1))) (= RTL.is_lui_auipc_jal_jalr_addi_add_sub (_ bv0 1))) (= RTL.is_sb_sh_sw (_ bv1 1))) (= RTL.is_sll_srl_sra (_ bv1 1))) (= RTL.is_slli_srli_srai (_ bv0 1))) (= RTL.is_slti_blt_slt (_ bv1 1))) (= RTL.is_sltiu_bltu_sltu (_ bv1 1))) (= RTL.last_mem_valid (_ bv0 1))) (= RTL.latched_branch (_ bv0 1))) (= RTL.latched_compr (_ bv1 1))) (= RTL.latched_is_lb (_ bv0 1))) (= RTL.latched_is_lh (_ bv0 1))) (= RTL.latched_is_lu (_ bv0 1))) (= RTL.latched_stalu (_ bv0 1))) (= RTL.latched_store (_ bv0 1))) (= RTL.latched_trace (_ bv0 1))) (= RTL.mem_do_prefetch (_ bv0 1))) (= RTL.mem_do_rdata (_ bv1 1))) (= RTL.mem_do_rinst (_ bv1 1))) (= RTL.mem_do_wdata (_ bv1 1))) (= RTL.mem_instr (_ bv0 1))) (= RTL.mem_la_firstword_reg (_ bv0 1))) (= RTL.mem_la_secondword (_ bv0 1))) (= RTL.mem_state (_ bv3 2))) (= RTL.mem_valid (_ bv1 1))) (= RTL.mem_wordsize (_ bv1 2))) (= RTL.pcpi_valid (_ bv0 1))) (= RTL.prefetched_high_word (_ bv0 1))) (= RTL.rvfi_halt (_ bv0 1))) (= RTL.rvfi_intr (_ bv0 1))) (= RTL.rvfi_mode (_ bv3 2))) (= RTL.rvfi_trap (_ bv0 1))) (= RTL.rvfi_valid (_ bv1 1))) (= RTL.trace_valid (_ bv0 1))) (= RTL.trap (_ bv0 1))))))
(define-fun assumption.2 ((RTL.instr_srli (_ BitVec 1)) (RTL.instr_sub (_ BitVec 1)) (RTL.irq_state (_ BitVec 2)) (RTL.irq_delay (_ BitVec 1)) (RTL.is_alu_reg_reg (_ BitVec 1)) (RTL.irq_active (_ BitVec 1)) (RTL.is_beq_bne_blt_bge_bltu_bgeu (_ BitVec 1)) (RTL.instr_xori (_ BitVec 1)) (RTL.is_compare (_ BitVec 1)) (RTL.instr_xor (_ BitVec 1)) (RTL.is_jalr_addi_slti_sltiu_xori_ori_andi (_ BitVec 1)) (RTL.instr_waitirq (_ BitVec 1)) (RTL.is_lb_lh_lw_lbu_lhu (_ BitVec 1)) (RTL.instr_timer (_ BitVec 1)) (RTL.is_lbu_lhu_lw (_ BitVec 1)) (RTL.instr_sw (_ BitVec 1)) (RTL.is_lui_auipc_jal (_ BitVec 1)) (RTL.is_lui_auipc_jal_jalr_addi_add_sub (_ BitVec 1)) (RTL.is_sb_sh_sw (_ BitVec 1)) (RTL.is_sll_srl_sra (_ BitVec 1)) (RTL.mem_la_secondword (_ BitVec 1)) (RTL.mem_state (_ BitVec 2)) (RTL.mem_valid (_ BitVec 1)) (RTL.mem_do_prefetch (_ BitVec 1)) (RTL.pcpi_valid (_ BitVec 1)) (RTL.latched_store (_ BitVec 1)) (RTL.prefetched_high_word (_ BitVec 1)) (RTL.instr_slli (_ BitVec 1)) (RTL.latched_is_lu (_ BitVec 1)) (RTL.rvfi_halt (_ BitVec 1)) (RTL.instr_slt (_ BitVec 1)) (RTL.latched_is_lh (_ BitVec 1)) (RTL.rvfi_intr (_ BitVec 1)) (RTL.instr_slti (_ BitVec 1)) (RTL.latched_is_lb (_ BitVec 1)) (RTL.rvfi_mode (_ BitVec 2)) (RTL.instr_sltiu (_ BitVec 1)) (RTL.latched_compr (_ BitVec 1)) (RTL.rvfi_trap (_ BitVec 1)) (RTL.instr_sltu (_ BitVec 1)) (RTL.latched_branch (_ BitVec 1)) (RTL.rvfi_valid (_ BitVec 1)) (RTL.instr_sra (_ BitVec 1)) (RTL.last_mem_valid (_ BitVec 1)) (RTL.instr_lb (_ BitVec 1)) (RTL.do_waitirq (_ BitVec 1)) (RTL.instr_jal (_ BitVec 1)) (RTL.instr_add (_ BitVec 1)) (RTL.instr_bne (_ BitVec 1)) (RTL.instr_addi (_ BitVec 1)) (RTL.instr_blt (_ BitVec 1)) (RTL.instr_and (_ BitVec 1)) (RTL.instr_bgeu (_ BitVec 1)) (RTL.instr_beq (_ BitVec 1)) (RTL.instr_auipc (_ BitVec 1)) (RTL.instr_bge (_ BitVec 1)) (RTL.instr_andi (_ BitVec 1)) (RTL.instr_bltu (_ BitVec 1)) (RTL.instr_getq (_ BitVec 1)) (RTL.instr_jalr (_ BitVec 1)) (RTL.clear_prefetched_high_word_q (_ BitVec 1)) (RTL.dbg_next (_ BitVec 1)) (RTL.decoder_pseudo_trigger (_ BitVec 1)) (RTL.instr_ori (_ BitVec 1)) (RTL.compressed_instr (_ BitVec 1)) (RTL.dbg_rs1val_valid (_ BitVec 1)) (RTL.dbg_valid_insn (_ BitVec 1)) (RTL.instr_rdcycleh (_ BitVec 1)) (RTL.dbg_irq_enter (_ BitVec 1)) (RTL.dbg_irq_call (_ BitVec 1)) (RTL.decoder_pseudo_trigger_q (_ BitVec 1)) (RTL.instr_maskirq (_ BitVec 1)) (RTL.dbg_rs2val_valid (_ BitVec 1)) (RTL.instr_rdinstrh (_ BitVec 1)) (RTL.decoder_trigger (_ BitVec 1)) (RTL.instr_lui (_ BitVec 1)) (RTL.decoder_trigger_q (_ BitVec 1)) (RTL.instr_lh (_ BitVec 1)) (RTL.instr_lbu (_ BitVec 1)) (RTL.instr_lhu (_ BitVec 1)) (RTL.instr_lw (_ BitVec 1)) (RTL.instr_or (_ BitVec 1)) (RTL.instr_rdcycle (_ BitVec 1)) (RTL.instr_rdinstr (_ BitVec 1)) (RTL.instr_retirq (_ BitVec 1)) (RTL.mem_la_firstword_reg (_ BitVec 1)) (RTL.instr_sb (_ BitVec 1)) (RTL.instr_setq (_ BitVec 1)) (RTL.instr_sh (_ BitVec 1)) (RTL.is_sltiu_bltu_sltu (_ BitVec 1)) (RTL.instr_srai (_ BitVec 1)) (RTL.latched_stalu (_ BitVec 1)) (RTL.is_alu_reg_imm (_ BitVec 1)) (RTL.latched_trace (_ BitVec 1)) (RTL.instr_sll (_ BitVec 1)) (RTL.mem_do_rdata (_ BitVec 1)) (RTL.mem_do_rinst (_ BitVec 1)) (RTL.mem_do_wdata (_ BitVec 1)) (RTL.mem_instr (_ BitVec 1)) (RTL.trap (_ BitVec 1)) (RTL.is_slli_srli_srai (_ BitVec 1)) (RTL.instr_srl (_ BitVec 1)) (RTL.trace_valid (_ BitVec 1))) Bool (and true (not (and (and (and (and (and (and (and (and (and (and (and (and (and (and (and (and (and (and (and (and (and (and (and (and (and (and (and (and (and (and (and (and (and (and (and (and (and (and (and (and (and (and (and (and (and (and (and (and (and (and (and (and (and (and (and (and (and (and (and (and (and (and (and (and (and (and (and (and (and (and (and (and (and (and (and (and (and (and (and (and (and (and (and (and (and (and (and (and (and (and (and (and (and (and (and (and (and (and (and (and (and (and (= RTL.clear_prefetched_high_word_q (_ bv0 1)) (= RTL.compressed_instr (_ bv0 1))) (= RTL.dbg_irq_call (_ bv1 1))) (= RTL.dbg_irq_enter (_ bv0 1))) (= RTL.dbg_next (_ bv1 1))) (= RTL.dbg_rs1val_valid (_ bv0 1))) (= RTL.dbg_rs2val_valid (_ bv0 1))) (= RTL.dbg_valid_insn (_ bv1 1))) (= RTL.decoder_pseudo_trigger (_ bv0 1))) (= RTL.decoder_pseudo_trigger_q (_ bv1 1))) (= RTL.decoder_trigger (_ bv1 1))) (= RTL.decoder_trigger_q (_ bv0 1))) (= RTL.do_waitirq (_ bv0 1))) (= RTL.instr_add (_ bv1 1))) (= RTL.instr_addi (_ bv1 1))) (= RTL.instr_and (_ bv1 1))) (= RTL.instr_andi (_ bv1 1))) (= RTL.instr_auipc (_ bv0 1))) (= RTL.instr_beq (_ bv0 1))) (= RTL.instr_bge (_ bv0 1))) (= RTL.instr_bgeu (_ bv0 1))) (= RTL.instr_blt (_ bv1 1))) (= RTL.instr_bltu (_ bv1 1))) (= RTL.instr_bne (_ bv1 1))) (= RTL.instr_getq (_ bv1 1))) (= RTL.instr_jal (_ bv1 1))) (= RTL.instr_jalr (_ bv1 1))) (= RTL.instr_lb (_ bv1 1))) (= RTL.instr_lbu (_ bv1 1))) (= RTL.instr_lh (_ bv1 1))) (= RTL.instr_lhu (_ bv1 1))) (= RTL.instr_lui (_ bv0 1))) (= RTL.instr_lw (_ bv1 1))) (= RTL.instr_maskirq (_ bv1 1))) (= RTL.instr_or (_ bv1 1))) (= RTL.instr_ori (_ bv1 1))) (= RTL.instr_rdcycle (_ bv1 1))) (= RTL.instr_rdcycleh (_ bv0 1))) (= RTL.instr_rdinstr (_ bv0 1))) (= RTL.instr_rdinstrh (_ bv0 1))) (= RTL.instr_retirq (_ bv1 1))) (= RTL.instr_sb (_ bv1 1))) (= RTL.instr_setq (_ bv1 1))) (= RTL.instr_sh (_ bv1 1))) (= RTL.instr_sll (_ bv1 1))) (= RTL.instr_slli (_ bv1 1))) (= RTL.instr_slt (_ bv1 1))) (= RTL.instr_slti (_ bv1 1))) (= RTL.instr_sltiu (_ bv1 1))) (= RTL.instr_sltu (_ bv1 1))) (= RTL.instr_sra (_ bv1 1))) (= RTL.instr_srai (_ bv1 1))) (= RTL.instr_srl (_ bv1 1))) (= RTL.instr_srli (_ bv1 1))) (= RTL.instr_sub (_ bv1 1))) (= RTL.instr_sw (_ bv1 1))) (= RTL.instr_timer (_ bv1 1))) (= RTL.instr_waitirq (_ bv1 1))) (= RTL.instr_xor (_ bv1 1))) (= RTL.instr_xori (_ bv1 1))) (= RTL.irq_active (_ bv0 1))) (= RTL.irq_delay (_ bv0 1))) (= RTL.irq_state (_ bv3 2))) (= RTL.is_alu_reg_imm (_ bv0 1))) (= RTL.is_alu_reg_reg (_ bv0 1))) (= RTL.is_beq_bne_blt_bge_bltu_bgeu (_ bv1 1))) (= RTL.is_compare (_ bv0 1))) (= RTL.is_jalr_addi_slti_sltiu_xori_ori_andi (_ bv0 1))) (= RTL.is_lb_lh_lw_lbu_lhu (_ bv1 1))) (= RTL.is_lbu_lhu_lw (_ bv0 1))) (= RTL.is_lui_auipc_jal (_ bv0 1))) (= RTL.is_lui_auipc_jal_jalr_addi_add_sub (_ bv0 1))) (= RTL.is_sb_sh_sw (_ bv1 1))) (= RTL.is_sll_srl_sra (_ bv1 1))) (= RTL.is_slli_srli_srai (_ bv0 1))) (= RTL.is_sltiu_bltu_sltu (_ bv1 1))) (= RTL.last_mem_valid (_ bv0 1))) (= RTL.latched_branch (_ bv0 1))) (= RTL.latched_compr (_ bv1 1))) (= RTL.latched_is_lb (_ bv0 1))) (= RTL.latched_is_lh (_ bv0 1))) (= RTL.latched_is_lu (_ bv0 1))) (= RTL.latched_stalu (_ bv0 1))) (= RTL.latched_store (_ bv0 1))) (= RTL.latched_trace (_ bv0 1))) (= RTL.mem_do_prefetch (_ bv0 1))) (= RTL.mem_do_rdata (_ bv1 1))) (= RTL.mem_do_rinst (_ bv1 1))) (= RTL.mem_do_wdata (_ bv1 1))) (= RTL.mem_instr (_ bv0 1))) (= RTL.mem_la_firstword_reg (_ bv0 1))) (= RTL.mem_la_secondword (_ bv0 1))) (= RTL.mem_state (_ bv3 2))) (= RTL.mem_valid (_ bv1 1))) (= RTL.pcpi_valid (_ bv0 1))) (= RTL.prefetched_high_word (_ bv0 1))) (= RTL.rvfi_halt (_ bv0 1))) (= RTL.rvfi_intr (_ bv0 1))) (= RTL.rvfi_mode (_ bv3 2))) (= RTL.rvfi_trap (_ bv0 1))) (= RTL.rvfi_valid (_ bv1 1))) (= RTL.trace_valid (_ bv0 1))) (= RTL.trap (_ bv0 1))))))
(define-fun assumption.3 ((RTL.instr_srl (_ BitVec 1)) (RTL.instr_srli (_ BitVec 1)) (RTL.instr_sll (_ BitVec 1)) (RTL.irq_delay (_ BitVec 1)) (RTL.irq_state (_ BitVec 2)) (RTL.irq_active (_ BitVec 1)) (RTL.is_alu_reg_imm (_ BitVec 1)) (RTL.instr_xori (_ BitVec 1)) (RTL.is_alu_reg_reg (_ BitVec 1)) (RTL.instr_xor (_ BitVec 1)) (RTL.is_beq_bne_blt_bge_bltu_bgeu (_ BitVec 1)) (RTL.instr_waitirq (_ BitVec 1)) (RTL.is_compare (_ BitVec 1)) (RTL.instr_timer (_ BitVec 1)) (RTL.is_jalr_addi_slti_sltiu_xori_ori_andi (_ BitVec 1)) (RTL.instr_sw (_ BitVec 1)) (RTL.is_lb_lh_lw_lbu_lhu (_ BitVec 1)) (RTL.instr_sub (_ BitVec 1)) (RTL.is_lbu_lhu_lw (_ BitVec 1)) (RTL.is_lui_auipc_jal (_ BitVec 1)) (RTL.is_lui_auipc_jal_jalr_addi_add_sub (_ BitVec 1)) (RTL.is_sb_sh_sw (_ BitVec 1)) (RTL.mem_la_firstword_reg (_ BitVec 1)) (RTL.mem_la_secondword (_ BitVec 1)) (RTL.mem_do_prefetch (_ BitVec 1)) (RTL.mem_state (_ BitVec 2)) (RTL.latched_store (_ BitVec 1)) (RTL.mem_valid (_ BitVec 1)) (RTL.latched_is_lu (_ BitVec 1)) (RTL.pcpi_valid (_ BitVec 1)) (RTL.latched_is_lh (_ BitVec 1)) (RTL.prefetched_high_word (_ BitVec 1)) (RTL.instr_slli (_ BitVec 1)) (RTL.latched_is_lb (_ BitVec 1)) (RTL.rvfi_halt (_ BitVec 1)) (RTL.instr_slt (_ BitVec 1)) (RTL.latched_compr (_ BitVec 1)) (RTL.rvfi_intr (_ BitVec 1)) (RTL.instr_slti (_ BitVec 1)) (RTL.latched_branch (_ BitVec 1)) (RTL.rvfi_mode (_ BitVec 2)) (RTL.instr_sltiu (_ BitVec 1)) (RTL.last_mem_valid (_ BitVec 1)) (RTL.instr_lb (_ BitVec 1)) (RTL.decoder_trigger (_ BitVec 1)) (RTL.instr_jal (_ BitVec 1)) (RTL.decoder_trigger_q (_ BitVec 1)) (RTL.instr_bne (_ BitVec 1)) (RTL.do_waitirq (_ BitVec 1)) (RTL.instr_blt (_ BitVec 1)) (RTL.instr_add (_ BitVec 1)) (RTL.instr_bgeu (_ BitVec 1)) (RTL.instr_beq (_ BitVec 1)) (RTL.instr_addi (_ BitVec 1)) (RTL.instr_auipc (_ BitVec 1)) (RTL.instr_andi (_ BitVec 1)) (RTL.instr_and (_ BitVec 1)) (RTL.instr_bge (_ BitVec 1)) (RTL.instr_bltu (_ BitVec 1)) (RTL.clear_prefetched_high_word_q (_ BitVec 1)) (RTL.dbg_next (_ BitVec 1)) (RTL.dbg_rs2val_valid (_ BitVec 1)) (RTL.instr_ori (_ BitVec 1)) (RTL.dbg_irq_enter (_ BitVec 1)) (RTL.dbg_valid_insn (_ BitVec 1)) (RTL.instr_maskirq (_ BitVec 1)) (RTL.dbg_rs1val_valid (_ BitVec 1)) (RTL.instr_rdcycleh (_ BitVec 1)) (RTL.compressed_instr (_ BitVec 1)) (RTL.decoder_pseudo_trigger (_ BitVec 1)) (RTL.instr_lui (_ BitVec 1)) (RTL.dbg_irq_call (_ BitVec 1)) (RTL.decoder_pseudo_trigger_q (_ BitVec 1)) (RTL.instr_lh (_ BitVec 1)) (RTL.instr_lbu (_ BitVec 1)) (RTL.instr_jalr (_ BitVec 1)) (RTL.instr_getq (_ BitVec 1)) (RTL.instr_lhu (_ BitVec 1)) (RTL.instr_lw (_ BitVec 1)) (RTL.instr_or (_ BitVec 1)) (RTL.instr_rdcycle (_ BitVec 1)) (RTL.instr_rdinstr (_ BitVec 1)) (RTL.mem_instr (_ BitVec 1)) (RTL.instr_rdinstrh (_ BitVec 1)) (RTL.instr_retirq (_ BitVec 1)) (RTL.instr_sb (_ BitVec 1)) (RTL.instr_setq (_ BitVec 1)) (RTL.is_sll_srl_sra (_ BitVec 1)) (RTL.instr_srai (_ BitVec 1)) (RTL.latched_stalu (_ BitVec 1)) (RTL.instr_sh (_ BitVec 1)) (RTL.latched_trace (_ BitVec 1)) (RTL.mem_do_rdata (_ BitVec 1)) (RTL.mem_do_rinst (_ BitVec 1)) (RTL.mem_do_wdata (_ BitVec 1)) (RTL.trap (_ BitVec 1)) (RTL.is_slli_srli_srai (_ BitVec 1)) (RTL.instr_sra (_ BitVec 1)) (RTL.trace_valid (_ BitVec 1)) (RTL.is_sltiu_bltu_sltu (_ BitVec 1)) (RTL.instr_sltu (_ BitVec 1)) (RTL.rvfi_valid (_ BitVec 1))) Bool (and true (not (and (and (and (and (and (and (and (and (and (and (and (and (and (and (and (and (and (and (and (and (and (and (and (and (and (and (and (and (and (and (and (and (and (and (and (and (and (and (and (and (and (and (and (and (and (and (and (and (and (and (and (and (and (and (and (and (and (and (and (and (and (and (and (and (and (and (and (and (and (and (and (and (and (and (and (and (and (and (and (and (and (and (and (and (and (and (and (and (and (and (and (and (and (and (and (and (and (and (and (and (and (= RTL.clear_prefetched_high_word_q (_ bv0 1)) (= RTL.compressed_instr (_ bv0 1))) (= RTL.dbg_irq_call (_ bv1 1))) (= RTL.dbg_irq_enter (_ bv0 1))) (= RTL.dbg_next (_ bv1 1))) (= RTL.dbg_rs1val_valid (_ bv0 1))) (= RTL.dbg_rs2val_valid (_ bv0 1))) (= RTL.dbg_valid_insn (_ bv1 1))) (= RTL.decoder_pseudo_trigger (_ bv0 1))) (= RTL.decoder_pseudo_trigger_q (_ bv1 1))) (= RTL.decoder_trigger (_ bv1 1))) (= RTL.decoder_trigger_q (_ bv0 1))) (= RTL.do_waitirq (_ bv0 1))) (= RTL.instr_add (_ bv1 1))) (= RTL.instr_addi (_ bv1 1))) (= RTL.instr_and (_ bv1 1))) (= RTL.instr_andi (_ bv1 1))) (= RTL.instr_auipc (_ bv0 1))) (= RTL.instr_beq (_ bv0 1))) (= RTL.instr_bge (_ bv0 1))) (= RTL.instr_bgeu (_ bv0 1))) (= RTL.instr_blt (_ bv1 1))) (= RTL.instr_bltu (_ bv1 1))) (= RTL.instr_bne (_ bv1 1))) (= RTL.instr_getq (_ bv1 1))) (= RTL.instr_jal (_ bv1 1))) (= RTL.instr_jalr (_ bv1 1))) (= RTL.instr_lb (_ bv1 1))) (= RTL.instr_lbu (_ bv1 1))) (= RTL.instr_lh (_ bv1 1))) (= RTL.instr_lhu (_ bv1 1))) (= RTL.instr_lui (_ bv0 1))) (= RTL.instr_lw (_ bv1 1))) (= RTL.instr_maskirq (_ bv1 1))) (= RTL.instr_or (_ bv1 1))) (= RTL.instr_ori (_ bv1 1))) (= RTL.instr_rdcycle (_ bv1 1))) (= RTL.instr_rdcycleh (_ bv0 1))) (= RTL.instr_rdinstr (_ bv0 1))) (= RTL.instr_rdinstrh (_ bv0 1))) (= RTL.instr_retirq (_ bv1 1))) (= RTL.instr_sb (_ bv1 1))) (= RTL.instr_setq (_ bv1 1))) (= RTL.instr_sh (_ bv1 1))) (= RTL.instr_sll (_ bv1 1))) (= RTL.instr_slli (_ bv1 1))) (= RTL.instr_slt (_ bv1 1))) (= RTL.instr_slti (_ bv1 1))) (= RTL.instr_sltiu (_ bv1 1))) (= RTL.instr_sltu (_ bv1 1))) (= RTL.instr_sra (_ bv1 1))) (= RTL.instr_srai (_ bv1 1))) (= RTL.instr_srl (_ bv1 1))) (= RTL.instr_srli (_ bv1 1))) (= RTL.instr_sub (_ bv1 1))) (= RTL.instr_sw (_ bv1 1))) (= RTL.instr_timer (_ bv1 1))) (= RTL.instr_waitirq (_ bv1 1))) (= RTL.instr_xor (_ bv1 1))) (= RTL.instr_xori (_ bv1 1))) (= RTL.irq_active (_ bv0 1))) (= RTL.irq_delay (_ bv0 1))) (= RTL.irq_state (_ bv3 2))) (= RTL.is_alu_reg_imm (_ bv0 1))) (= RTL.is_alu_reg_reg (_ bv0 1))) (= RTL.is_beq_bne_blt_bge_bltu_bgeu (_ bv1 1))) (= RTL.is_compare (_ bv0 1))) (= RTL.is_jalr_addi_slti_sltiu_xori_ori_andi (_ bv0 1))) (= RTL.is_lb_lh_lw_lbu_lhu (_ bv1 1))) (= RTL.is_lbu_lhu_lw (_ bv0 1))) (= RTL.is_lui_auipc_jal (_ bv0 1))) (= RTL.is_lui_auipc_jal_jalr_addi_add_sub (_ bv0 1))) (= RTL.is_sb_sh_sw (_ bv1 1))) (= RTL.is_sll_srl_sra (_ bv1 1))) (= RTL.is_slli_srli_srai (_ bv0 1))) (= RTL.is_sltiu_bltu_sltu (_ bv1 1))) (= RTL.last_mem_valid (_ bv0 1))) (= RTL.latched_branch (_ bv0 1))) (= RTL.latched_compr (_ bv1 1))) (= RTL.latched_is_lb (_ bv0 1))) (= RTL.latched_is_lh (_ bv0 1))) (= RTL.latched_is_lu (_ bv0 1))) (= RTL.latched_stalu (_ bv0 1))) (= RTL.latched_store (_ bv0 1))) (= RTL.latched_trace (_ bv0 1))) (= RTL.mem_do_prefetch (_ bv0 1))) (= RTL.mem_do_rdata (_ bv1 1))) (= RTL.mem_do_rinst (_ bv1 1))) (= RTL.mem_do_wdata (_ bv1 1))) (= RTL.mem_instr (_ bv0 1))) (= RTL.mem_la_firstword_reg (_ bv0 1))) (= RTL.mem_la_secondword (_ bv0 1))) (= RTL.mem_state (_ bv3 2))) (= RTL.mem_valid (_ bv1 1))) (= RTL.pcpi_valid (_ bv0 1))) (= RTL.prefetched_high_word (_ bv0 1))) (= RTL.rvfi_halt (_ bv0 1))) (= RTL.rvfi_intr (_ bv0 1))) (= RTL.rvfi_mode (_ bv3 2))) (= RTL.rvfi_valid (_ bv1 1))) (= RTL.trace_valid (_ bv0 1))) (= RTL.trap (_ bv0 1))))))
(define-fun assumption.4 ((RTL.instr_sra (_ BitVec 1)) (RTL.instr_srai (_ BitVec 1)) (RTL.instr_srl (_ BitVec 1)) (RTL.instr_sll (_ BitVec 1)) (RTL.instr_xor (_ BitVec 1)) (RTL.instr_sh (_ BitVec 1)) (RTL.irq_active (_ BitVec 1)) (RTL.instr_setq (_ BitVec 1)) (RTL.irq_delay (_ BitVec 1)) (RTL.instr_xori (_ BitVec 1)) (RTL.irq_state (_ BitVec 2)) (RTL.instr_waitirq (_ BitVec 1)) (RTL.is_alu_reg_imm (_ BitVec 1)) (RTL.instr_timer (_ BitVec 1)) (RTL.is_alu_reg_reg (_ BitVec 1)) (RTL.instr_sw (_ BitVec 1)) (RTL.is_beq_bne_blt_bge_bltu_bgeu (_ BitVec 1)) (RTL.instr_sub (_ BitVec 1)) (RTL.is_compare (_ BitVec 1)) (RTL.instr_srli (_ BitVec 1)) (RTL.is_jalr_addi_slti_sltiu_xori_ori_andi (_ BitVec 1)) (RTL.is_lb_lh_lw_lbu_lhu (_ BitVec 1)) (RTL.is_lbu_lhu_lw (_ BitVec 1)) (RTL.is_lui_auipc_jal (_ BitVec 1)) (RTL.is_lui_auipc_jal_jalr_addi_add_sub (_ BitVec 1)) (RTL.mem_do_wdata (_ BitVec 1)) (RTL.mem_do_prefetch (_ BitVec 1)) (RTL.mem_instr (_ BitVec 1)) (RTL.latched_store (_ BitVec 1)) (RTL.mem_la_firstword_reg (_ BitVec 1)) (RTL.latched_is_lu (_ BitVec 1)) (RTL.mem_la_secondword (_ BitVec 1)) (RTL.latched_is_lh (_ BitVec 1)) (RTL.mem_state (_ BitVec 2)) (RTL.latched_is_lb (_ BitVec 1)) (RTL.mem_valid (_ BitVec 1)) (RTL.latched_compr (_ BitVec 1)) (RTL.pcpi_valid (_ BitVec 1)) (RTL.latched_branch (_ BitVec 1)) (RTL.prefetched_high_word (_ BitVec 1)) (RTL.instr_slli (_ BitVec 1)) (RTL.last_mem_valid (_ BitVec 1)) (RTL.instr_lb (_ BitVec 1)) (RTL.dbg_valid_insn (_ BitVec 1)) (RTL.instr_jal (_ BitVec 1)) (RTL.decoder_pseudo_trigger (_ BitVec 1)) (RTL.instr_bne (_ BitVec 1)) (RTL.decoder_pseudo_trigger_q (_ BitVec 1)) (RTL.instr_blt (_ BitVec 1)) (RTL.decoder_trigger (_ BitVec 1)) (RTL.instr_beq (_ BitVec 1)) (RTL.decoder_trigger_q (_ BitVec 1)) (RTL.instr_andi (_ BitVec 1)) (RTL.instr_and (_ BitVec 1)) (RTL.instr_addi (_ BitVec 1)) (RTL.instr_add (_ BitVec 1)) (RTL.instr_bge (_ BitVec 1)) (RTL.instr_auipc (_ BitVec 1)) (RTL.rvfi_halt (_ BitVec 1)) (RTL.do_waitirq (_ BitVec 1)) (RTL.dbg_irq_enter (_ BitVec 1)) (RTL.dbg_next (_ BitVec 1)) (RTL.instr_maskirq (_ BitVec 1)) (RTL.dbg_rs1val_valid (_ BitVec 1)) (RTL.instr_lui (_ BitVec 1)) (RTL.clear_prefetched_high_word_q (_ BitVec 1)) (RTL.dbg_rs2val_valid (_ BitVec 1)) (RTL.instr_lh (_ BitVec 1)) (RTL.instr_lbu (_ BitVec 1)) (RTL.compressed_instr (_ BitVec 1)) (RTL.instr_jalr (_ BitVec 1)) (RTL.instr_bgeu (_ BitVec 1)) (RTL.instr_getq (_ BitVec 1)) (RTL.dbg_irq_call (_ BitVec 1)) (RTL.instr_bltu (_ BitVec 1)) (RTL.instr_lhu (_ BitVec 1)) (RTL.instr_lw (_ BitVec 1)) (RTL.instr_or (_ BitVec 1)) (RTL.instr_ori (_ BitVec 1)) (RTL.instr_rdcycle (_ BitVec 1)) (RTL.instr_rdcycleh (_ BitVec 1)) (RTL.instr_rdinstr (_ BitVec 1)) (RTL.instr_rdinstrh (_ BitVec 1)) (RTL.instr_retirq (_ BitVec 1)) (RTL.instr_sb (_ BitVec 1)) (RTL.latched_stalu (_ BitVec 1)) (RTL.latched_trace (_ BitVec 1)) (RTL.mem_do_rdata (_ BitVec 1)) (RTL.mem_do_rinst (_ BitVec 1)) (RTL.trap (_ BitVec 1)) (RTL.is_sb_sh_sw (_ BitVec 1)) (RTL.instr_sltu (_ BitVec 1)) (RTL.trace_valid (_ BitVec 1)) (RTL.is_sll_srl_sra (_ BitVec 1)) (RTL.instr_sltiu (_ BitVec 1)) (RTL.rvfi_valid (_ BitVec 1)) (RTL.is_slli_srli_srai (_ BitVec 1)) (RTL.instr_slti (_ BitVec 1)) (RTL.rvfi_mode (_ BitVec 2)) (RTL.is_sltiu_bltu_sltu (_ BitVec 1)) (RTL.instr_slt (_ BitVec 1))) Bool (and true (not (and (and (and (and (and (and (and (and (and (and (and (and (and (and (and (and (and (and (and (and (and (and (and (and (and (and (and (and (and (and (and (and (and (and (and (and (and (and (and (and (and (and (and (and (and (and (and (and (and (and (and (and (and (and (and (and (and (and (and (and (and (and (and (and (and (and (and (and (and (and (and (and (and (and (and (and (and (and (and (and (and (and (and (and (and (and (and (and (and (and (and (and (and (and (and (and (and (and (and (and (= RTL.clear_prefetched_high_word_q (_ bv0 1)) (= RTL.compressed_instr (_ bv0 1))) (= RTL.dbg_irq_call (_ bv1 1))) (= RTL.dbg_irq_enter (_ bv0 1))) (= RTL.dbg_next (_ bv1 1))) (= RTL.dbg_rs1val_valid (_ bv0 1))) (= RTL.dbg_rs2val_valid (_ bv0 1))) (= RTL.dbg_valid_insn (_ bv1 1))) (= RTL.decoder_pseudo_trigger (_ bv0 1))) (= RTL.decoder_pseudo_trigger_q (_ bv1 1))) (= RTL.decoder_trigger (_ bv1 1))) (= RTL.decoder_trigger_q (_ bv0 1))) (= RTL.do_waitirq (_ bv0 1))) (= RTL.instr_add (_ bv1 1))) (= RTL.instr_addi (_ bv1 1))) (= RTL.instr_and (_ bv1 1))) (= RTL.instr_andi (_ bv1 1))) (= RTL.instr_auipc (_ bv0 1))) (= RTL.instr_beq (_ bv0 1))) (= RTL.instr_bge (_ bv0 1))) (= RTL.instr_bgeu (_ bv0 1))) (= RTL.instr_blt (_ bv1 1))) (= RTL.instr_bltu (_ bv1 1))) (= RTL.instr_bne (_ bv1 1))) (= RTL.instr_getq (_ bv1 1))) (= RTL.instr_jal (_ bv1 1))) (= RTL.instr_jalr (_ bv1 1))) (= RTL.instr_lb (_ bv1 1))) (= RTL.instr_lbu (_ bv1 1))) (= RTL.instr_lh (_ bv1 1))) (= RTL.instr_lhu (_ bv1 1))) (= RTL.instr_lui (_ bv0 1))) (= RTL.instr_lw (_ bv1 1))) (= RTL.instr_maskirq (_ bv1 1))) (= RTL.instr_or (_ bv1 1))) (= RTL.instr_ori (_ bv1 1))) (= RTL.instr_rdcycle (_ bv1 1))) (= RTL.instr_rdcycleh (_ bv0 1))) (= RTL.instr_rdinstr (_ bv0 1))) (= RTL.instr_rdinstrh (_ bv0 1))) (= RTL.instr_retirq (_ bv1 1))) (= RTL.instr_sb (_ bv1 1))) (= RTL.instr_setq (_ bv1 1))) (= RTL.instr_sh (_ bv1 1))) (= RTL.instr_sll (_ bv1 1))) (= RTL.instr_slli (_ bv1 1))) (= RTL.instr_slt (_ bv1 1))) (= RTL.instr_slti (_ bv1 1))) (= RTL.instr_sltiu (_ bv1 1))) (= RTL.instr_sltu (_ bv1 1))) (= RTL.instr_sra (_ bv1 1))) (= RTL.instr_srai (_ bv1 1))) (= RTL.instr_srl (_ bv1 1))) (= RTL.instr_srli (_ bv1 1))) (= RTL.instr_sub (_ bv1 1))) (= RTL.instr_sw (_ bv1 1))) (= RTL.instr_timer (_ bv1 1))) (= RTL.instr_waitirq (_ bv1 1))) (= RTL.instr_xor (_ bv1 1))) (= RTL.instr_xori (_ bv1 1))) (= RTL.irq_active (_ bv0 1))) (= RTL.irq_delay (_ bv0 1))) (= RTL.irq_state (_ bv3 2))) (= RTL.is_alu_reg_imm (_ bv0 1))) (= RTL.is_alu_reg_reg (_ bv0 1))) (= RTL.is_beq_bne_blt_bge_bltu_bgeu (_ bv1 1))) (= RTL.is_compare (_ bv0 1))) (= RTL.is_jalr_addi_slti_sltiu_xori_ori_andi (_ bv0 1))) (= RTL.is_lb_lh_lw_lbu_lhu (_ bv1 1))) (= RTL.is_lbu_lhu_lw (_ bv0 1))) (= RTL.is_lui_auipc_jal (_ bv0 1))) (= RTL.is_lui_auipc_jal_jalr_addi_add_sub (_ bv0 1))) (= RTL.is_sb_sh_sw (_ bv1 1))) (= RTL.is_sll_srl_sra (_ bv1 1))) (= RTL.is_slli_srli_srai (_ bv0 1))) (= RTL.is_sltiu_bltu_sltu (_ bv1 1))) (= RTL.last_mem_valid (_ bv0 1))) (= RTL.latched_branch (_ bv0 1))) (= RTL.latched_compr (_ bv1 1))) (= RTL.latched_is_lb (_ bv0 1))) (= RTL.latched_is_lh (_ bv0 1))) (= RTL.latched_is_lu (_ bv0 1))) (= RTL.latched_stalu (_ bv0 1))) (= RTL.latched_store (_ bv0 1))) (= RTL.latched_trace (_ bv0 1))) (= RTL.mem_do_prefetch (_ bv0 1))) (= RTL.mem_do_rdata (_ bv1 1))) (= RTL.mem_do_rinst (_ bv1 1))) (= RTL.mem_do_wdata (_ bv1 1))) (= RTL.mem_instr (_ bv0 1))) (= RTL.mem_la_firstword_reg (_ bv0 1))) (= RTL.mem_la_secondword (_ bv0 1))) (= RTL.mem_state (_ bv3 2))) (= RTL.mem_valid (_ bv1 1))) (= RTL.pcpi_valid (_ bv0 1))) (= RTL.prefetched_high_word (_ bv0 1))) (= RTL.rvfi_halt (_ bv0 1))) (= RTL.rvfi_mode (_ bv3 2))) (= RTL.rvfi_valid (_ bv1 1))) (= RTL.trace_valid (_ bv0 1))) (= RTL.trap (_ bv0 1))))))
(define-fun assumption.5 ((RTL.rvfi_halt (_ BitVec 1)) (RTL.reg_pc (_ BitVec 32)) (RTL.reg_op1 (_ BitVec 32)) (RTL.mem_wordsize (_ BitVec 2)) (RTL.instr_jal (_ BitVec 1)) (RTL.dbg_valid_insn (_ BitVec 1)) (RTL.cpu_state (_ BitVec 8))) Bool (and true (not (and (and (and (and (and (and (= RTL.cpu_state (_ bv64 8)) (= RTL.dbg_valid_insn (_ bv1 1))) (= RTL.instr_jal (_ bv1 1))) (= RTL.mem_wordsize (_ bv0 2))) (= RTL.reg_op1 (_ bv0 32))) (= RTL.reg_pc (_ bv4294967292 32))) (= RTL.rvfi_halt (_ bv1 1))))))
(define-fun assumption.6 ((RTL.rvfi_halt (_ BitVec 1)) (RTL.reg_pc (_ BitVec 32)) (RTL.instr_jal (_ BitVec 1)) (RTL.dbg_valid_insn (_ BitVec 1)) (RTL.cpu_state (_ BitVec 8))) Bool (and true (not (and (and (and (and (= RTL.cpu_state (_ bv64 8)) (= RTL.dbg_valid_insn (_ bv1 1))) (= RTL.instr_jal (_ bv1 1))) (= RTL.reg_pc (_ bv4294967292 32))) (= RTL.rvfi_halt (_ bv1 1))))))
(define-fun assumption.7 ((RTL.instr_slt (_ BitVec 1)) (RTL.instr_slti (_ BitVec 1)) (RTL.instr_sltiu (_ BitVec 1)) (RTL.instr_sltu (_ BitVec 1)) (RTL.instr_srai (_ BitVec 1)) (RTL.instr_srl (_ BitVec 1)) (RTL.instr_srli (_ BitVec 1)) (RTL.instr_sub (_ BitVec 1)) (RTL.instr_sw (_ BitVec 1)) (RTL.instr_timer (_ BitVec 1)) (RTL.instr_sra (_ BitVec 1)) (RTL.instr_waitirq (_ BitVec 1)) (RTL.instr_xor (_ BitVec 1)) (RTL.instr_xori (_ BitVec 1)) (RTL.irq_active (_ BitVec 1)) (RTL.irq_delay (_ BitVec 1)) (RTL.irq_state (_ BitVec 2)) (RTL.is_alu_reg_imm (_ BitVec 1)) (RTL.is_alu_reg_reg (_ BitVec 1)) (RTL.is_beq_bne_blt_bge_bltu_bgeu (_ BitVec 1)) (RTL.is_lui_auipc_jal (_ BitVec 1)) (RTL.is_lui_auipc_jal_jalr_addi_add_sub (_ BitVec 1)) (RTL.is_sb_sh_sw (_ BitVec 1)) (RTL.is_sll_srl_sra (_ BitVec 1)) (RTL.is_slli_srli_srai (_ BitVec 1)) (RTL.is_slti_blt_slt (_ BitVec 1)) (RTL.mem_la_secondword (_ BitVec 1)) (RTL.latched_store (_ BitVec 1)) (RTL.mem_state (_ BitVec 2)) (RTL.mem_la_firstword_reg (_ BitVec 1)) (RTL.mem_valid (_ BitVec 1)) (RTL.rvfi_intr (_ BitVec 1)) (RTL.is_lbu_lhu_lw (_ BitVec 1)) (RTL.is_sltiu_bltu_sltu (_ BitVec 1)) (RTL.prefetched_high_word (_ BitVec 1)) (RTL.mem_instr (_ BitVec 1)) (RTL.rvfi_mode (_ BitVec 2)) (RTL.rvfi_trap (_ BitVec 1)) (RTL.rvfi_halt (_ BitVec 1)) (RTL.rvfi_valid (_ BitVec 1)) (RTL.mem_wordsize (_ BitVec 2)) (RTL.is_lb_lh_lw_lbu_lhu (_ BitVec 1)) (RTL.mem_do_prefetch (_ BitVec 1)) (RTL.pcpi_valid (_ BitVec 1)) (RTL.trace_valid (_ BitVec 1)) (RTL.trap (_ BitVec 1)) (RTL.instr_lbu (_ BitVec 1)) (RTL.instr_getq (_ BitVec 1)) (RTL.instr_bltu (_ BitVec 1)) (RTL.latched_compr (_ BitVec 1)) (RTL.instr_bge (_ BitVec 1)) (RTL.decoder_trigger_q (_ BitVec 1)) (RTL.instr_beq (_ BitVec 1)) (RTL.instr_auipc (_ BitVec 1)) (RTL.instr_and (_ BitVec 1)) (RTL.instr_add (_ BitVec 1)) (RTL.decoder_pseudo_trigger (_ BitVec 1)) (RTL.instr_ori (_ BitVec 1)) (RTL.instr_addi (_ BitVec 1)) (RTL.latched_is_lh (_ BitVec 1)) (RTL.compressed_instr (_ BitVec 1)) (RTL.instr_andi (_ BitVec 1)) (RTL.latched_is_lb (_ BitVec 1)) (RTL.dbg_irq_call (_ BitVec 1)) (RTL.instr_bne (_ BitVec 1)) (RTL.dbg_irq_enter (_ BitVec 1)) (RTL.clear_prefetched_high_word_q (_ BitVec 1)) (RTL.do_waitirq (_ BitVec 1)) (RTL.latched_is_lu (_ BitVec 1)) (RTL.instr_jal (_ BitVec 1)) (RTL.decoder_trigger (_ BitVec 1)) (RTL.dbg_next (_ BitVec 1)) (RTL.instr_lb (_ BitVec 1)) (RTL.latched_branch (_ BitVec 1)) (RTL.dbg_rs1val_valid (_ BitVec 1)) (RTL.instr_bgeu (_ BitVec 1)) (RTL.mem_do_wdata (_ BitVec 1)) (RTL.dbg_rs2val_valid (_ BitVec 1)) (RTL.instr_jalr (_ BitVec 1)) (RTL.dbg_valid_insn (_ BitVec 1)) (RTL.decoder_pseudo_trigger_q (_ BitVec 1)) (RTL.instr_lhu (_ BitVec 1)) (RTL.instr_blt (_ BitVec 1)) (RTL.instr_lh (_ BitVec 1)) (RTL.instr_lui (_ BitVec 1)) (RTL.instr_lw (_ BitVec 1)) (RTL.last_mem_valid (_ BitVec 1)) (RTL.instr_maskirq (_ BitVec 1)) (RTL.instr_or (_ BitVec 1)) (RTL.instr_rdcycle (_ BitVec 1)) (RTL.instr_rdcycleh (_ BitVec 1)) (RTL.instr_rdinstr (_ BitVec 1)) (RTL.instr_rdinstrh (_ BitVec 1)) (RTL.instr_retirq (_ BitVec 1)) (RTL.instr_sb (_ BitVec 1)) (RTL.instr_setq (_ BitVec 1)) (RTL.instr_sh (_ BitVec 1)) (RTL.instr_sll (_ BitVec 1)) (RTL.instr_slli (_ BitVec 1)) (RTL.latched_stalu (_ BitVec 1)) (RTL.latched_trace (_ BitVec 1)) (RTL.mem_do_rdata (_ BitVec 1)) (RTL.is_jalr_addi_slti_sltiu_xori_ori_andi (_ BitVec 1)) (RTL.mem_do_rinst (_ BitVec 1)) (RTL.is_compare (_ BitVec 1))) Bool (and true (not (and (and (and (and (and (and (and (and (and (and (and (and (and (and (and (and (and (and (and (and (and (and (and (and (and (and (and (and (and (and (and (and (and (and (and (and (and (and (and (and (and (and (and (and (and (and (and (and (and (and (and (and (and (and (and (and (and (and (and (and (and (and (and (and (and (and (and (and (and (and (and (and (and (and (and (and (and (and (and (and (and (and (and (and (and (and (and (and (and (and (and (and (and (and (and (and (and (and (and (and (and (and (and (and (= RTL.clear_prefetched_high_word_q (_ bv0 1)) (= RTL.compressed_instr (_ bv0 1))) (= RTL.dbg_irq_call (_ bv1 1))) (= RTL.dbg_irq_enter (_ bv0 1))) (= RTL.dbg_next (_ bv1 1))) (= RTL.dbg_rs1val_valid (_ bv0 1))) (= RTL.dbg_rs2val_valid (_ bv0 1))) (= RTL.dbg_valid_insn (_ bv1 1))) (= RTL.decoder_pseudo_trigger (_ bv0 1))) (= RTL.decoder_pseudo_trigger_q (_ bv1 1))) (= RTL.decoder_trigger (_ bv1 1))) (= RTL.decoder_trigger_q (_ bv0 1))) (= RTL.do_waitirq (_ bv0 1))) (= RTL.instr_add (_ bv1 1))) (= RTL.instr_addi (_ bv1 1))) (= RTL.instr_and (_ bv1 1))) (= RTL.instr_andi (_ bv1 1))) (= RTL.instr_auipc (_ bv0 1))) (= RTL.instr_beq (_ bv0 1))) (= RTL.instr_bge (_ bv0 1))) (= RTL.instr_bgeu (_ bv0 1))) (= RTL.instr_blt (_ bv1 1))) (= RTL.instr_bltu (_ bv1 1))) (= RTL.instr_bne (_ bv1 1))) (= RTL.instr_getq (_ bv1 1))) (= RTL.instr_jal (_ bv1 1))) (= RTL.instr_jalr (_ bv1 1))) (= RTL.instr_lb (_ bv1 1))) (= RTL.instr_lbu (_ bv1 1))) (= RTL.instr_lh (_ bv1 1))) (= RTL.instr_lhu (_ bv1 1))) (= RTL.instr_lui (_ bv0 1))) (= RTL.instr_lw (_ bv1 1))) (= RTL.instr_maskirq (_ bv1 1))) (= RTL.instr_or (_ bv1 1))) (= RTL.instr_ori (_ bv1 1))) (= RTL.instr_rdcycle (_ bv1 1))) (= RTL.instr_rdcycleh (_ bv0 1))) (= RTL.instr_rdinstr (_ bv0 1))) (= RTL.instr_rdinstrh (_ bv0 1))) (= RTL.instr_retirq (_ bv1 1))) (= RTL.instr_sb (_ bv1 1))) (= RTL.instr_setq (_ bv1 1))) (= RTL.instr_sh (_ bv1 1))) (= RTL.instr_sll (_ bv1 1))) (= RTL.instr_slli (_ bv1 1))) (= RTL.instr_slt (_ bv1 1))) (= RTL.instr_slti (_ bv1 1))) (= RTL.instr_sltiu (_ bv1 1))) (= RTL.instr_sltu (_ bv1 1))) (= RTL.instr_sra (_ bv1 1))) (= RTL.instr_srai (_ bv1 1))) (= RTL.instr_srl (_ bv1 1))) (= RTL.instr_srli (_ bv1 1))) (= RTL.instr_sub (_ bv1 1))) (= RTL.instr_sw (_ bv1 1))) (= RTL.instr_timer (_ bv1 1))) (= RTL.instr_waitirq (_ bv1 1))) (= RTL.instr_xor (_ bv1 1))) (= RTL.instr_xori (_ bv1 1))) (= RTL.irq_active (_ bv0 1))) (= RTL.irq_delay (_ bv0 1))) (= RTL.irq_state (_ bv3 2))) (= RTL.is_alu_reg_imm (_ bv0 1))) (= RTL.is_alu_reg_reg (_ bv0 1))) (= RTL.is_beq_bne_blt_bge_bltu_bgeu (_ bv1 1))) (= RTL.is_compare (_ bv0 1))) (= RTL.is_jalr_addi_slti_sltiu_xori_ori_andi (_ bv0 1))) (= RTL.is_lb_lh_lw_lbu_lhu (_ bv1 1))) (= RTL.is_lbu_lhu_lw (_ bv0 1))) (= RTL.is_lui_auipc_jal (_ bv0 1))) (= RTL.is_lui_auipc_jal_jalr_addi_add_sub (_ bv0 1))) (= RTL.is_sb_sh_sw (_ bv1 1))) (= RTL.is_sll_srl_sra (_ bv1 1))) (= RTL.is_slli_srli_srai (_ bv0 1))) (= RTL.is_slti_blt_slt (_ bv0 1))) (= RTL.is_sltiu_bltu_sltu (_ bv1 1))) (= RTL.last_mem_valid (_ bv0 1))) (= RTL.latched_branch (_ bv0 1))) (= RTL.latched_compr (_ bv1 1))) (= RTL.latched_is_lb (_ bv0 1))) (= RTL.latched_is_lh (_ bv0 1))) (= RTL.latched_is_lu (_ bv0 1))) (= RTL.latched_stalu (_ bv0 1))) (= RTL.latched_store (_ bv0 1))) (= RTL.latched_trace (_ bv0 1))) (= RTL.mem_do_prefetch (_ bv0 1))) (= RTL.mem_do_rdata (_ bv1 1))) (= RTL.mem_do_rinst (_ bv1 1))) (= RTL.mem_do_wdata (_ bv1 1))) (= RTL.mem_instr (_ bv0 1))) (= RTL.mem_la_firstword_reg (_ bv0 1))) (= RTL.mem_la_secondword (_ bv0 1))) (= RTL.mem_state (_ bv3 2))) (= RTL.mem_valid (_ bv1 1))) (= RTL.mem_wordsize (_ bv2 2))) (= RTL.pcpi_valid (_ bv0 1))) (= RTL.prefetched_high_word (_ bv1 1))) (= RTL.rvfi_halt (_ bv0 1))) (= RTL.rvfi_intr (_ bv0 1))) (= RTL.rvfi_mode (_ bv3 2))) (= RTL.rvfi_trap (_ bv0 1))) (= RTL.rvfi_valid (_ bv1 1))) (= RTL.trace_valid (_ bv0 1))) (= RTL.trap (_ bv0 1))))))
